n = 100;
C = 546;
w = [227,472,740,216,981,569,215,740,560,633,744,877,640,23,839,527,693,529,659,881,874,838,268,84,472,644,345,319,145,308,330,750,638,545,255,790,977,125,151,850,771,515,74,194,208,630,631,942,238,577,736,55,1,221,88,295,434,662,596,932,955,62,807,834,733,400,988,662,722,870,984,619,731,524,557,840,347,859,904,560,195,887,116,1000,52,913,725,661,536,102,286,628,177,606,652,664,296,862,976,104];
p = [132,415,642,130,998,541,282,719,497,652,728,907,685,17,858,498,787,476,603,880,828,826,250,37,402,627,417,350,76,366,302,829,556,537,310,804,905,36,78,854,718,451,89,104,235,576,590,937,319,584,705,7,-68,250,77,243,460,684,578,968,926,39,850,825,820,383,1067,681,645,965,929,530,635,534,514,824,391,858,817,612,170,856,45,1098,83,965,649,564,461,201,362,638,167,595,557,737,354,873,959,18];
